20
94
10
0 1
0 2
0 6
0 9
0 13
0 15
0 18
1 3
1 7
1 8
1 10
1 11
1 17
2 3
2 6
2 8
2 12
2 14
2 16
2 18
3 4
3 5
3 6
3 7
3 8
3 11
3 15
3 17
3 19
4 7
4 8
4 10
4 12
4 13
4 15
4 16
4 17
4 18
5 7
5 8
5 10
5 13
5 14
5 16
5 18
6 7
6 8
6 10
6 11
6 12
6 13
6 18
7 11
7 12
7 14
7 16
7 17
7 18
8 9
8 10
8 11
8 14
8 16
8 17
9 10
9 11
9 12
9 13
9 14
10 11
10 13
10 14
10 16
10 18
11 12
11 14
11 15
11 16
12 13
12 14
12 15
12 16
12 17
12 18
13 14
13 16
14 17
14 18
14 19
15 18
16 18
16 19
17 19
18 19
5 11
2 19
3 15
8 17
1 18
7 9
10 16
12 14
0 13
4 6
